c 1 a1
c 2 a10
c 3 a11
c 4 a12
c 5 a13
c 6 a14
c 7 a15
c 8 a16
c 9 a17
c 10 a18
c 11 a19
c 12 a2
c 13 a20
c 14 a21
c 15 a22
c 16 a23
c 17 a24
c 18 a25
c 19 a26
c 20 a27
c 21 a28
c 22 a29
c 23 a3
c 24 a30
c 25 a31
c 26 a32
c 27 a33
c 28 a34
c 29 a35
c 30 a36
c 31 a37
c 32 a38
c 33 a39
c 34 a4
c 35 a40
c 36 a41
c 37 a42
c 38 a43
c 39 a44
c 40 a45
c 41 a46
c 42 a47
c 43 a48
c 44 a49
c 45 a5
c 46 a50
c 47 a6
c 48 a7
c 49 a8
c 50 a9
c 51 __spec__0
c 52 __spec__1
c 53 __spec__2
c 54 __spec__3
c 55 __spec__4
c 56 __spec__5
c 57 __spec__6
c 58 __spec__7
c 59 __spec__8
c 60 __spec__9
c 61 __spec__10
c 62 __spec__11
c 63 __spec__12
c 64 __spec__13
c 65 __spec__14
c 66 __spec__15
c 67 __spec__16
c 68 __spec__17
c 69 __spec__18
c 70 __spec__19
c 71 __spec__20
c 72 __spec__21
c 73 __spec__22
c 74 __spec__23
c 75 __spec__24
c 76 __spec__25
c 77 __spec__26
c 78 __spec__27
c 79 __spec__28
c 80 __spec__29
c 81 __spec__30
c 82 __spec__31
c 83 __spec__32
c 84 __spec__33
c 85 __spec__34
c 86 __spec__35
c 87 __spec__36
c 88 __spec__37
c 89 __spec__38
c 90 __spec__39
c 91 __spec__40
c 92 __spec__41
c 93 __spec__42
c 94 __spec__43
c 95 __spec__44
c 96 __spec__45
c 97 __spec__46
c 98 __spec__47
c MAIN 99 __spec__48
p cnf 99 148
99  0
44 -51  0
46 -51  0
-44 -46 51  0
43 -52  0
51 -52  0
-43 -51 52  0
42 -53  0
52 -53  0
-42 -52 53  0
41 -54  0
53 -54  0
-41 -53 54  0
40 -55  0
54 -55  0
-40 -54 55  0
39 -56  0
55 -56  0
-39 -55 56  0
38 -57  0
56 -57  0
-38 -56 57  0
37 -58  0
57 -58  0
-37 -57 58  0
36 -59  0
58 -59  0
-36 -58 59  0
35 -60  0
59 -60  0
-35 -59 60  0
33 -61  0
60 -61  0
-33 -60 61  0
32 -62  0
61 -62  0
-32 -61 62  0
31 -63  0
62 -63  0
-31 -62 63  0
30 -64  0
63 -64  0
-30 -63 64  0
29 -65  0
64 -65  0
-29 -64 65  0
28 -66  0
65 -66  0
-28 -65 66  0
27 -67  0
66 -67  0
-27 -66 67  0
26 -68  0
67 -68  0
-26 -67 68  0
25 -69  0
68 -69  0
-25 -68 69  0
24 -70  0
69 -70  0
-24 -69 70  0
22 -71  0
70 -71  0
-22 -70 71  0
21 -72  0
71 -72  0
-21 -71 72  0
20 -73  0
72 -73  0
-20 -72 73  0
19 -74  0
73 -74  0
-19 -73 74  0
18 -75  0
74 -75  0
-18 -74 75  0
17 -76  0
75 -76  0
-17 -75 76  0
16 -77  0
76 -77  0
-16 -76 77  0
15 -78  0
77 -78  0
-15 -77 78  0
14 -79  0
78 -79  0
-14 -78 79  0
13 -80  0
79 -80  0
-13 -79 80  0
11 -81  0
80 -81  0
-11 -80 81  0
10 -82  0
81 -82  0
-10 -81 82  0
9 -83  0
82 -83  0
-9 -82 83  0
8 -84  0
83 -84  0
-8 -83 84  0
7 -85  0
84 -85  0
-7 -84 85  0
6 -86  0
85 -86  0
-6 -85 86  0
5 -87  0
86 -87  0
-5 -86 87  0
4 -88  0
87 -88  0
-4 -87 88  0
3 -89  0
88 -89  0
-3 -88 89  0
2 -90  0
89 -90  0
-2 -89 90  0
50 -91  0
90 -91  0
-50 -90 91  0
49 -92  0
91 -92  0
-49 -91 92  0
48 -93  0
92 -93  0
-48 -92 93  0
47 -94  0
93 -94  0
-47 -93 94  0
45 -95  0
94 -95  0
-45 -94 95  0
34 -96  0
95 -96  0
-34 -95 96  0
23 -97  0
96 -97  0
-23 -96 97  0
12 -98  0
97 -98  0
-12 -97 98  0
-99 1 98  0
-1 99  0
-98 99  0
